\ Model project
\ LP format - for model browsing. Use MPS format to capture full model detail.
Minimize
 [ 2 orderamounts[0,0] * y[0,0,0] + 1.7 orderamounts[0,0] * y[0,0,1]
   + 1.52 orderamounts[0,0] * y[0,0,2] + 1.44 orderamounts[0,0] * y[0,0,3]
   + 1.22 orderamounts[0,0] * y[0,0,4] + 1.14 orderamounts[0,0] * y[0,0,5]
   + 1.12 orderamounts[0,0] * y[0,0,6] + 2 orderamounts[0,1] * y[0,1,0]
   + 1.7 orderamounts[0,1] * y[0,1,1] + 1.52 orderamounts[0,1] * y[0,1,2]
   + 1.44 orderamounts[0,1] * y[0,1,3] + 1.22 orderamounts[0,1] * y[0,1,4]
   + 1.14 orderamounts[0,1] * y[0,1,5] + 1.12 orderamounts[0,1] * y[0,1,6]
   + 2 orderamounts[0,2] * y[0,2,0] + 1.7 orderamounts[0,2] * y[0,2,1]
   + 1.52 orderamounts[0,2] * y[0,2,2] + 1.44 orderamounts[0,2] * y[0,2,3]
   + 1.22 orderamounts[0,2] * y[0,2,4] + 1.14 orderamounts[0,2] * y[0,2,5]
   + 1.12 orderamounts[0,2] * y[0,2,6] + 2 orderamounts[0,3] * y[0,3,0]
   + 1.7 orderamounts[0,3] * y[0,3,1] + 1.52 orderamounts[0,3] * y[0,3,2]
   + 1.44 orderamounts[0,3] * y[0,3,3] + 1.22 orderamounts[0,3] * y[0,3,4]
   + 1.14 orderamounts[0,3] * y[0,3,5] + 1.12 orderamounts[0,3] * y[0,3,6]
   + 2 orderamounts[0,4] * y[0,4,0] + 1.7 orderamounts[0,4] * y[0,4,1]
   + 1.52 orderamounts[0,4] * y[0,4,2] + 1.44 orderamounts[0,4] * y[0,4,3]
   + 1.22 orderamounts[0,4] * y[0,4,4] + 1.14 orderamounts[0,4] * y[0,4,5]
   + 1.12 orderamounts[0,4] * y[0,4,6] + 2 orderamounts[0,5] * y[0,5,0]
   + 1.7 orderamounts[0,5] * y[0,5,1] + 1.52 orderamounts[0,5] * y[0,5,2]
   + 1.44 orderamounts[0,5] * y[0,5,3] + 1.22 orderamounts[0,5] * y[0,5,4]
   + 1.14 orderamounts[0,5] * y[0,5,5] + 1.12 orderamounts[0,5] * y[0,5,6]
   + 2 orderamounts[0,6] * y[0,6,0] + 1.7 orderamounts[0,6] * y[0,6,1]
   + 1.52 orderamounts[0,6] * y[0,6,2] + 1.44 orderamounts[0,6] * y[0,6,3]
   + 1.22 orderamounts[0,6] * y[0,6,4] + 1.14 orderamounts[0,6] * y[0,6,5]
   + 1.12 orderamounts[0,6] * y[0,6,6] + 2 orderamounts[0,7] * y[0,7,0]
   + 1.7 orderamounts[0,7] * y[0,7,1] + 1.52 orderamounts[0,7] * y[0,7,2]
   + 1.44 orderamounts[0,7] * y[0,7,3] + 1.22 orderamounts[0,7] * y[0,7,4]
   + 1.14 orderamounts[0,7] * y[0,7,5] + 1.12 orderamounts[0,7] * y[0,7,6]
   + 2 orderamounts[0,8] * y[0,8,0] + 1.7 orderamounts[0,8] * y[0,8,1]
   + 1.52 orderamounts[0,8] * y[0,8,2] + 1.44 orderamounts[0,8] * y[0,8,3]
   + 1.22 orderamounts[0,8] * y[0,8,4] + 1.14 orderamounts[0,8] * y[0,8,5]
   + 1.12 orderamounts[0,8] * y[0,8,6] + 2 orderamounts[0,9] * y[0,9,0]
   + 1.7 orderamounts[0,9] * y[0,9,1] + 1.52 orderamounts[0,9] * y[0,9,2]
   + 1.44 orderamounts[0,9] * y[0,9,3] + 1.22 orderamounts[0,9] * y[0,9,4]
   + 1.14 orderamounts[0,9] * y[0,9,5] + 1.12 orderamounts[0,9] * y[0,9,6]
   + 2 orderamounts[0,10] * y[0,10,0] + 1.7 orderamounts[0,10] * y[0,10,1]
   + 1.52 orderamounts[0,10] * y[0,10,2]
   + 1.44 orderamounts[0,10] * y[0,10,3]
   + 1.22 orderamounts[0,10] * y[0,10,4]
   + 1.14 orderamounts[0,10] * y[0,10,5]
   + 1.12 orderamounts[0,10] * y[0,10,6] + 2 orderamounts[0,11] * y[0,11,0]
   + 1.7 orderamounts[0,11] * y[0,11,1]
   + 1.52 orderamounts[0,11] * y[0,11,2]
   + 1.44 orderamounts[0,11] * y[0,11,3]
   + 1.22 orderamounts[0,11] * y[0,11,4]
   + 1.14 orderamounts[0,11] * y[0,11,5]
   + 1.12 orderamounts[0,11] * y[0,11,6] + 2 orderamounts[1,0] * y[1,0,0]
   + 1.7 orderamounts[1,0] * y[1,0,1] + 1.52 orderamounts[1,0] * y[1,0,2]
   + 1.44 orderamounts[1,0] * y[1,0,3] + 1.22 orderamounts[1,0] * y[1,0,4]
   + 1.14 orderamounts[1,0] * y[1,0,5] + 1.12 orderamounts[1,0] * y[1,0,6]
   + 2 orderamounts[1,1] * y[1,1,0] + 1.7 orderamounts[1,1] * y[1,1,1]
   + 1.52 orderamounts[1,1] * y[1,1,2] + 1.44 orderamounts[1,1] * y[1,1,3]
   + 1.22 orderamounts[1,1] * y[1,1,4] + 1.14 orderamounts[1,1] * y[1,1,5]
   + 1.12 orderamounts[1,1] * y[1,1,6] + 2 orderamounts[1,2] * y[1,2,0]
   + 1.7 orderamounts[1,2] * y[1,2,1] + 1.52 orderamounts[1,2] * y[1,2,2]
   + 1.44 orderamounts[1,2] * y[1,2,3] + 1.22 orderamounts[1,2] * y[1,2,4]
   + 1.14 orderamounts[1,2] * y[1,2,5] + 1.12 orderamounts[1,2] * y[1,2,6]
   + 2 orderamounts[1,3] * y[1,3,0] + 1.7 orderamounts[1,3] * y[1,3,1]
   + 1.52 orderamounts[1,3] * y[1,3,2] + 1.44 orderamounts[1,3] * y[1,3,3]
   + 1.22 orderamounts[1,3] * y[1,3,4] + 1.14 orderamounts[1,3] * y[1,3,5]
   + 1.12 orderamounts[1,3] * y[1,3,6] + 2 orderamounts[1,4] * y[1,4,0]
   + 1.7 orderamounts[1,4] * y[1,4,1] + 1.52 orderamounts[1,4] * y[1,4,2]
   + 1.44 orderamounts[1,4] * y[1,4,3] + 1.22 orderamounts[1,4] * y[1,4,4]
   + 1.14 orderamounts[1,4] * y[1,4,5] + 1.12 orderamounts[1,4] * y[1,4,6]
   + 2 orderamounts[1,5] * y[1,5,0] + 1.7 orderamounts[1,5] * y[1,5,1]
   + 1.52 orderamounts[1,5] * y[1,5,2] + 1.44 orderamounts[1,5] * y[1,5,3]
   + 1.22 orderamounts[1,5] * y[1,5,4] + 1.14 orderamounts[1,5] * y[1,5,5]
   + 1.12 orderamounts[1,5] * y[1,5,6] + 2 orderamounts[1,6] * y[1,6,0]
   + 1.7 orderamounts[1,6] * y[1,6,1] + 1.52 orderamounts[1,6] * y[1,6,2]
   + 1.44 orderamounts[1,6] * y[1,6,3] + 1.22 orderamounts[1,6] * y[1,6,4]
   + 1.14 orderamounts[1,6] * y[1,6,5] + 1.12 orderamounts[1,6] * y[1,6,6]
   + 2 orderamounts[1,7] * y[1,7,0] + 1.7 orderamounts[1,7] * y[1,7,1]
   + 1.52 orderamounts[1,7] * y[1,7,2] + 1.44 orderamounts[1,7] * y[1,7,3]
   + 1.22 orderamounts[1,7] * y[1,7,4] + 1.14 orderamounts[1,7] * y[1,7,5]
   + 1.12 orderamounts[1,7] * y[1,7,6] + 2 orderamounts[1,8] * y[1,8,0]
   + 1.7 orderamounts[1,8] * y[1,8,1] + 1.52 orderamounts[1,8] * y[1,8,2]
   + 1.44 orderamounts[1,8] * y[1,8,3] + 1.22 orderamounts[1,8] * y[1,8,4]
   + 1.14 orderamounts[1,8] * y[1,8,5] + 1.12 orderamounts[1,8] * y[1,8,6]
   + 2 orderamounts[1,9] * y[1,9,0] + 1.7 orderamounts[1,9] * y[1,9,1]
   + 1.52 orderamounts[1,9] * y[1,9,2] + 1.44 orderamounts[1,9] * y[1,9,3]
   + 1.22 orderamounts[1,9] * y[1,9,4] + 1.14 orderamounts[1,9] * y[1,9,5]
   + 1.12 orderamounts[1,9] * y[1,9,6] + 2 orderamounts[1,10] * y[1,10,0]
   + 1.7 orderamounts[1,10] * y[1,10,1]
   + 1.52 orderamounts[1,10] * y[1,10,2]
   + 1.44 orderamounts[1,10] * y[1,10,3]
   + 1.22 orderamounts[1,10] * y[1,10,4]
   + 1.14 orderamounts[1,10] * y[1,10,5]
   + 1.12 orderamounts[1,10] * y[1,10,6] + 2 orderamounts[1,11] * y[1,11,0]
   + 1.7 orderamounts[1,11] * y[1,11,1]
   + 1.52 orderamounts[1,11] * y[1,11,2]
   + 1.44 orderamounts[1,11] * y[1,11,3]
   + 1.22 orderamounts[1,11] * y[1,11,4]
   + 1.14 orderamounts[1,11] * y[1,11,5]
   + 1.12 orderamounts[1,11] * y[1,11,6] ] / 2 
Subject To
 R0: Shipments_from_supplier_to_WH[0,0] >= 0
 R1: Shipments_from_supplier_to_WH[1,0] >= 0
 R2: Inventory_in_warehouse[0,0] + Shipments_from_supplier_to_WH[0,1] >= 0
 R3: Inventory_in_warehouse[1,0] + Shipments_from_supplier_to_WH[1,1]
   >= 14489
 R4: Inventory_in_warehouse[0,1] + Shipments_from_supplier_to_WH[0,2] >= 0
 R5: Inventory_in_warehouse[1,1] + Shipments_from_supplier_to_WH[1,2] >= 0
 R6: Inventory_in_warehouse[0,2] + Shipments_from_supplier_to_WH[0,3] >= 0
 R7: Inventory_in_warehouse[1,2] + Shipments_from_supplier_to_WH[1,3] >= 0
 R8: Inventory_in_warehouse[0,3] + Shipments_from_supplier_to_WH[0,4]
   >= 15185
 R9: Inventory_in_warehouse[1,3] + Shipments_from_supplier_to_WH[1,4] >= 0
 R10: Inventory_in_warehouse[0,4] + Shipments_from_supplier_to_WH[0,5]
   >= 0
 R11: Inventory_in_warehouse[1,4] + Shipments_from_supplier_to_WH[1,5]
   >= 21733
 R12: Inventory_in_warehouse[0,5] + Shipments_from_supplier_to_WH[0,6]
   >= 0
 R13: Inventory_in_warehouse[1,5] + Shipments_from_supplier_to_WH[1,6]
   >= 0
 R14: Inventory_in_warehouse[0,6] + Shipments_from_supplier_to_WH[0,7]
   >= 0
 R15: Inventory_in_warehouse[1,6] + Shipments_from_supplier_to_WH[1,7]
   >= 0
 R16: Inventory_in_warehouse[0,7] + Shipments_from_supplier_to_WH[0,8]
   >= 0
 R17: Inventory_in_warehouse[1,7] + Shipments_from_supplier_to_WH[1,8]
   >= 0
 R18: Inventory_in_warehouse[0,8] + Shipments_from_supplier_to_WH[0,9]
   >= 0
 R19: Inventory_in_warehouse[1,8] + Shipments_from_supplier_to_WH[1,9]
   >= 0
 R20: Inventory_in_warehouse[0,9] + Shipments_from_supplier_to_WH[0,10]
   >= 0
 R21: Inventory_in_warehouse[1,9] + Shipments_from_supplier_to_WH[1,10]
   >= 0
 R22: Inventory_in_warehouse[0,10] + Shipments_from_supplier_to_WH[0,11]
   >= 0
 R23: Inventory_in_warehouse[1,10] + Shipments_from_supplier_to_WH[1,11]
   >= 21733
 R24: orderamounts[0,0] - 15000 z[0,0] >= 0
 R25: orderamounts[1,0] - 15000 z[1,0] >= 0
 R26: orderamounts[0,1] - 15000 z[0,1] >= 0
 R27: orderamounts[1,1] - 15000 z[1,1] >= 0
 R28: orderamounts[0,2] - 15000 z[0,2] >= 0
 R29: orderamounts[1,2] - 15000 z[1,2] >= 0
 R30: orderamounts[0,3] - 15000 z[0,3] >= 0
 R31: orderamounts[1,3] - 15000 z[1,3] >= 0
 R32: orderamounts[0,4] - 15000 z[0,4] >= 0
 R33: orderamounts[1,4] - 15000 z[1,4] >= 0
 R34: orderamounts[0,5] - 15000 z[0,5] >= 0
 R35: orderamounts[1,5] - 15000 z[1,5] >= 0
 R36: orderamounts[0,6] - 15000 z[0,6] >= 0
 R37: orderamounts[1,6] - 15000 z[1,6] >= 0
 R38: orderamounts[0,7] - 15000 z[0,7] >= 0
 R39: orderamounts[1,7] - 15000 z[1,7] >= 0
 R40: orderamounts[0,8] - 15000 z[0,8] >= 0
 R41: orderamounts[1,8] - 15000 z[1,8] >= 0
 R42: orderamounts[0,9] - 15000 z[0,9] >= 0
 R43: orderamounts[1,9] - 15000 z[1,9] >= 0
 R44: orderamounts[0,10] - 15000 z[0,10] >= 0
 R45: orderamounts[1,10] - 15000 z[1,10] >= 0
 R46: orderamounts[0,11] - 15000 z[0,11] >= 0
 R47: orderamounts[1,11] - 15000 z[1,11] >= 0
 R48: orderamounts[0,0] - 1.5e+10 z[0,0] <= 0
 R49: orderamounts[1,0] - 1.5e+10 z[1,0] <= 0
 R50: orderamounts[0,1] - 1.5e+10 z[0,1] <= 0
 R51: orderamounts[1,1] - 1.5e+10 z[1,1] <= 0
 R52: orderamounts[0,2] - 1.5e+10 z[0,2] <= 0
 R53: orderamounts[1,2] - 1.5e+10 z[1,2] <= 0
 R54: orderamounts[0,3] - 1.5e+10 z[0,3] <= 0
 R55: orderamounts[1,3] - 1.5e+10 z[1,3] <= 0
 R56: orderamounts[0,4] - 1.5e+10 z[0,4] <= 0
 R57: orderamounts[1,4] - 1.5e+10 z[1,4] <= 0
 R58: orderamounts[0,5] - 1.5e+10 z[0,5] <= 0
 R59: orderamounts[1,5] - 1.5e+10 z[1,5] <= 0
 R60: orderamounts[0,6] - 1.5e+10 z[0,6] <= 0
 R61: orderamounts[1,6] - 1.5e+10 z[1,6] <= 0
 R62: orderamounts[0,7] - 1.5e+10 z[0,7] <= 0
 R63: orderamounts[1,7] - 1.5e+10 z[1,7] <= 0
 R64: orderamounts[0,8] - 1.5e+10 z[0,8] <= 0
 R65: orderamounts[1,8] - 1.5e+10 z[1,8] <= 0
 R66: orderamounts[0,9] - 1.5e+10 z[0,9] <= 0
 R67: orderamounts[1,9] - 1.5e+10 z[1,9] <= 0
 R68: orderamounts[0,10] - 1.5e+10 z[0,10] <= 0
 R69: orderamounts[1,10] - 1.5e+10 z[1,10] <= 0
 R70: orderamounts[0,11] - 1.5e+10 z[0,11] <= 0
 R71: orderamounts[1,11] - 1.5e+10 z[1,11] <= 0
 R72: orderamounts[0,0] - Inventory_at_supplier[0,0]
   - Shipments_from_supplier_to_WH[0,0] = 0
 R73: orderamounts[1,0] - Inventory_at_supplier[1,0]
   - Shipments_from_supplier_to_WH[1,0] = 0
 R74: orderamounts[0,1] - Inventory_at_supplier[0,1]
   - Shipments_from_supplier_to_WH[0,1] = 0
 R75: orderamounts[1,1] - Inventory_at_supplier[1,1]
   - Shipments_from_supplier_to_WH[1,1] = 0
 R76: orderamounts[0,2] - Inventory_at_supplier[0,2]
   - Shipments_from_supplier_to_WH[0,2] = 0
 R77: orderamounts[1,2] - Inventory_at_supplier[1,2]
   - Shipments_from_supplier_to_WH[1,2] = 0
 R78: orderamounts[0,3] - Inventory_at_supplier[0,3]
   - Shipments_from_supplier_to_WH[0,3] = 0
 R79: orderamounts[1,3] - Inventory_at_supplier[1,3]
   - Shipments_from_supplier_to_WH[1,3] = 0
 R80: orderamounts[0,4] - Inventory_at_supplier[0,4]
   - Shipments_from_supplier_to_WH[0,4] = 0
 R81: orderamounts[1,4] - Inventory_at_supplier[1,4]
   - Shipments_from_supplier_to_WH[1,4] = 0
 R82: orderamounts[0,5] - Inventory_at_supplier[0,5]
   - Shipments_from_supplier_to_WH[0,5] = 0
 R83: orderamounts[1,5] - Inventory_at_supplier[1,5]
   - Shipments_from_supplier_to_WH[1,5] = 0
 R84: orderamounts[0,6] - Inventory_at_supplier[0,6]
   - Shipments_from_supplier_to_WH[0,6] = 0
 R85: orderamounts[1,6] - Inventory_at_supplier[1,6]
   - Shipments_from_supplier_to_WH[1,6] = 0
 R86: orderamounts[0,7] - Inventory_at_supplier[0,7]
   - Shipments_from_supplier_to_WH[0,7] = 0
 R87: orderamounts[1,7] - Inventory_at_supplier[1,7]
   - Shipments_from_supplier_to_WH[1,7] = 0
 R88: orderamounts[0,8] - Inventory_at_supplier[0,8]
   - Shipments_from_supplier_to_WH[0,8] = 0
 R89: orderamounts[1,8] - Inventory_at_supplier[1,8]
   - Shipments_from_supplier_to_WH[1,8] = 0
 R90: orderamounts[0,9] - Inventory_at_supplier[0,9]
   - Shipments_from_supplier_to_WH[0,9] = 0
 R91: orderamounts[1,9] - Inventory_at_supplier[1,9]
   - Shipments_from_supplier_to_WH[1,9] = 0
 R92: orderamounts[0,10] - Inventory_at_supplier[0,10]
   - Shipments_from_supplier_to_WH[0,10] = 0
 R93: orderamounts[1,10] - Inventory_at_supplier[1,10]
   - Shipments_from_supplier_to_WH[1,10] = 0
 R94: orderamounts[0,11] - Inventory_at_supplier[0,11]
   - Shipments_from_supplier_to_WH[0,11] = 0
 R95: orderamounts[1,11] - Inventory_at_supplier[1,11]
   - Shipments_from_supplier_to_WH[1,11] = 0
 R96: Inventory_at_supplier[0,0] <= 15185
 R97: Inventory_at_supplier[1,0] <= 36222
 R98: Inventory_at_supplier[0,1] <= 15185
 R99: Inventory_at_supplier[1,1] <= 36222
 R100: Inventory_at_supplier[0,2] <= 15815
 R101: Inventory_at_supplier[1,2] <= 21733
 R102: Inventory_at_supplier[0,3] <= 15185
 R103: Inventory_at_supplier[1,3] <= 21733
 R104: Inventory_at_supplier[0,4] <= 15185
 R105: Inventory_at_supplier[1,4] <= 21733
 R106: Inventory_at_supplier[0,5] <= 0
 R107: Inventory_at_supplier[1,5] <= 43467
 R108: Inventory_at_supplier[0,6] <= 1265
 R109: Inventory_at_supplier[1,6] <= 26563
 R110: Inventory_at_supplier[0,7] <= 2531
 R111: Inventory_at_supplier[1,7] <= 31393
 R112: Inventory_at_supplier[0,8] <= 3796
 R113: Inventory_at_supplier[1,8] <= 36222
 R114: Inventory_at_supplier[0,9] <= 5062
 R115: Inventory_at_supplier[1,9] <= 41052
 R116: Inventory_at_supplier[0,10] <= 6327
 R117: Inventory_at_supplier[1,10] <= 45881
 R118: Inventory_at_supplier[0,11] <= 7593
 R119: Inventory_at_supplier[1,11] <= 50711
 R120: Inventory_in_warehouse[0,0] - Inventory_in_warehouse[0,1]
   + Shipments_from_supplier_to_WH[0,1] = 0
 R121: Inventory_in_warehouse[1,0] - Inventory_in_warehouse[1,1]
   + Shipments_from_supplier_to_WH[1,1] = 14489
 R122: Inventory_in_warehouse[0,1] - Inventory_in_warehouse[0,2]
   + Shipments_from_supplier_to_WH[0,2] = 0
 R123: Inventory_in_warehouse[1,1] - Inventory_in_warehouse[1,2]
   + Shipments_from_supplier_to_WH[1,2] = 0
 R124: Inventory_in_warehouse[0,2] - Inventory_in_warehouse[0,3]
   + Shipments_from_supplier_to_WH[0,3] = 0
 R125: Inventory_in_warehouse[1,2] - Inventory_in_warehouse[1,3]
   + Shipments_from_supplier_to_WH[1,3] = 0
 R126: Inventory_in_warehouse[0,3] - Inventory_in_warehouse[0,4]
   + Shipments_from_supplier_to_WH[0,4] = 15185
 R127: Inventory_in_warehouse[1,3] - Inventory_in_warehouse[1,4]
   + Shipments_from_supplier_to_WH[1,4] = 0
 R128: Inventory_in_warehouse[0,4] - Inventory_in_warehouse[0,5]
   + Shipments_from_supplier_to_WH[0,5] = 0
 R129: Inventory_in_warehouse[1,4] - Inventory_in_warehouse[1,5]
   + Shipments_from_supplier_to_WH[1,5] = 21733
 R130: Inventory_in_warehouse[0,5] - Inventory_in_warehouse[0,6]
   + Shipments_from_supplier_to_WH[0,6] = 0
 R131: Inventory_in_warehouse[1,5] - Inventory_in_warehouse[1,6]
   + Shipments_from_supplier_to_WH[1,6] = 0
 R132: Inventory_in_warehouse[0,6] - Inventory_in_warehouse[0,7]
   + Shipments_from_supplier_to_WH[0,7] = 0
 R133: Inventory_in_warehouse[1,6] - Inventory_in_warehouse[1,7]
   + Shipments_from_supplier_to_WH[1,7] = 0
 R134: Inventory_in_warehouse[0,7] - Inventory_in_warehouse[0,8]
   + Shipments_from_supplier_to_WH[0,8] = 0
 R135: Inventory_in_warehouse[1,7] - Inventory_in_warehouse[1,8]
   + Shipments_from_supplier_to_WH[1,8] = 0
 R136: Inventory_in_warehouse[0,8] - Inventory_in_warehouse[0,9]
   + Shipments_from_supplier_to_WH[0,9] = 0
 R137: Inventory_in_warehouse[1,8] - Inventory_in_warehouse[1,9]
   + Shipments_from_supplier_to_WH[1,9] = 0
 R138: Inventory_in_warehouse[0,9] - Inventory_in_warehouse[0,10]
   + Shipments_from_supplier_to_WH[0,10] = 0
 R139: Inventory_in_warehouse[1,9] - Inventory_in_warehouse[1,10]
   + Shipments_from_supplier_to_WH[1,10] = 0
 R140: Inventory_in_warehouse[0,10] - Inventory_in_warehouse[0,11]
   + Shipments_from_supplier_to_WH[0,11] = 0
 R141: Inventory_in_warehouse[1,10] - Inventory_in_warehouse[1,11]
   + Shipments_from_supplier_to_WH[1,11] = 21733
 R142: - Inventory_in_warehouse[0,0] + Shipments_from_supplier_to_WH[0,0]
   = 0
 R143: - Inventory_in_warehouse[1,0] + Shipments_from_supplier_to_WH[1,0]
   = 0
 R144: Inventory_in_warehouse[0,0] >= 0
 R145: Inventory_in_warehouse[1,0] >= 0
 R146: Inventory_in_warehouse[0,1] >= 0
 R147: Inventory_in_warehouse[1,1] >= 2173
 R148: Inventory_in_warehouse[0,2] >= 0
 R149: Inventory_in_warehouse[1,2] >= 0
 R150: Inventory_in_warehouse[0,3] >= 0
 R151: Inventory_in_warehouse[1,3] >= 0
 R152: Inventory_in_warehouse[0,4] >= 2278
 R153: Inventory_in_warehouse[1,4] >= 0
 R154: Inventory_in_warehouse[0,5] >= 0
 R155: Inventory_in_warehouse[1,5] >= 3260
 R156: Inventory_in_warehouse[0,6] >= 0
 R157: Inventory_in_warehouse[1,6] >= 0
 R158: Inventory_in_warehouse[0,7] >= 0
 R159: Inventory_in_warehouse[1,7] >= 0
 R160: Inventory_in_warehouse[0,8] >= 0
 R161: Inventory_in_warehouse[1,8] >= 0
 R162: Inventory_in_warehouse[0,9] >= 0
 R163: Inventory_in_warehouse[1,9] >= 0
 R164: Inventory_in_warehouse[0,10] >= 0
 R165: Inventory_in_warehouse[1,10] >= 0
 R166: Inventory_in_warehouse[0,11] >= 0
 R167: Inventory_in_warehouse[1,11] >= 0
 R168: Inventory_in_warehouse[0,0] + Inventory_in_warehouse[1,0] <= 51407
 R169: Inventory_in_warehouse[0,1] + Inventory_in_warehouse[1,1] <= 51407
 R170: Inventory_in_warehouse[0,2] + Inventory_in_warehouse[1,2] <= 36919
 R171: Inventory_in_warehouse[0,3] + Inventory_in_warehouse[1,3] <= 36919
 R172: Inventory_in_warehouse[0,4] + Inventory_in_warehouse[1,4] <= 36919
 R173: Inventory_in_warehouse[0,5] + Inventory_in_warehouse[1,5] <= 43467
 R174: Inventory_in_warehouse[0,6] + Inventory_in_warehouse[1,6] <= 27828
 R175: Inventory_in_warehouse[0,7] + Inventory_in_warehouse[1,7] <= 33923
 R176: Inventory_in_warehouse[0,8] + Inventory_in_warehouse[1,8] <= 40019
 R177: Inventory_in_warehouse[0,9] + Inventory_in_warehouse[1,9] <= 46114
 R178: Inventory_in_warehouse[0,10] + Inventory_in_warehouse[1,10]
   <= 52209
 R179: Inventory_in_warehouse[0,11] + Inventory_in_warehouse[1,11]
   <= 58304
 R180: y[0,0,0] + y[0,0,1] + y[0,0,2] + y[0,0,3] + y[0,0,4] + y[0,0,5]
   + y[0,0,6] <= 1
 R181: y[0,1,0] + y[0,1,1] + y[0,1,2] + y[0,1,3] + y[0,1,4] + y[0,1,5]
   + y[0,1,6] <= 1
 R182: y[0,2,0] + y[0,2,1] + y[0,2,2] + y[0,2,3] + y[0,2,4] + y[0,2,5]
   + y[0,2,6] <= 1
 R183: y[0,3,0] + y[0,3,1] + y[0,3,2] + y[0,3,3] + y[0,3,4] + y[0,3,5]
   + y[0,3,6] <= 1
 R184: y[0,4,0] + y[0,4,1] + y[0,4,2] + y[0,4,3] + y[0,4,4] + y[0,4,5]
   + y[0,4,6] <= 1
 R185: y[0,5,0] + y[0,5,1] + y[0,5,2] + y[0,5,3] + y[0,5,4] + y[0,5,5]
   + y[0,5,6] <= 1
 R186: y[0,6,0] + y[0,6,1] + y[0,6,2] + y[0,6,3] + y[0,6,4] + y[0,6,5]
   + y[0,6,6] <= 1
 R187: y[0,7,0] + y[0,7,1] + y[0,7,2] + y[0,7,3] + y[0,7,4] + y[0,7,5]
   + y[0,7,6] <= 1
 R188: y[0,8,0] + y[0,8,1] + y[0,8,2] + y[0,8,3] + y[0,8,4] + y[0,8,5]
   + y[0,8,6] <= 1
 R189: y[0,9,0] + y[0,9,1] + y[0,9,2] + y[0,9,3] + y[0,9,4] + y[0,9,5]
   + y[0,9,6] <= 1
 R190: y[0,10,0] + y[0,10,1] + y[0,10,2] + y[0,10,3] + y[0,10,4]
   + y[0,10,5] + y[0,10,6] <= 1
 R191: y[0,11,0] + y[0,11,1] + y[0,11,2] + y[0,11,3] + y[0,11,4]
   + y[0,11,5] + y[0,11,6] <= 1
 R192: y[1,0,0] + y[1,0,1] + y[1,0,2] + y[1,0,3] + y[1,0,4] + y[1,0,5]
   + y[1,0,6] <= 1
 R193: y[1,1,0] + y[1,1,1] + y[1,1,2] + y[1,1,3] + y[1,1,4] + y[1,1,5]
   + y[1,1,6] <= 1
 R194: y[1,2,0] + y[1,2,1] + y[1,2,2] + y[1,2,3] + y[1,2,4] + y[1,2,5]
   + y[1,2,6] <= 1
 R195: y[1,3,0] + y[1,3,1] + y[1,3,2] + y[1,3,3] + y[1,3,4] + y[1,3,5]
   + y[1,3,6] <= 1
 R196: y[1,4,0] + y[1,4,1] + y[1,4,2] + y[1,4,3] + y[1,4,4] + y[1,4,5]
   + y[1,4,6] <= 1
 R197: y[1,5,0] + y[1,5,1] + y[1,5,2] + y[1,5,3] + y[1,5,4] + y[1,5,5]
   + y[1,5,6] <= 1
 R198: y[1,6,0] + y[1,6,1] + y[1,6,2] + y[1,6,3] + y[1,6,4] + y[1,6,5]
   + y[1,6,6] <= 1
 R199: y[1,7,0] + y[1,7,1] + y[1,7,2] + y[1,7,3] + y[1,7,4] + y[1,7,5]
   + y[1,7,6] <= 1
 R200: y[1,8,0] + y[1,8,1] + y[1,8,2] + y[1,8,3] + y[1,8,4] + y[1,8,5]
   + y[1,8,6] <= 1
 R201: y[1,9,0] + y[1,9,1] + y[1,9,2] + y[1,9,3] + y[1,9,4] + y[1,9,5]
   + y[1,9,6] <= 1
 R202: y[1,10,0] + y[1,10,1] + y[1,10,2] + y[1,10,3] + y[1,10,4]
   + y[1,10,5] + y[1,10,6] <= 1
 R203: y[1,11,0] + y[1,11,1] + y[1,11,2] + y[1,11,3] + y[1,11,4]
   + y[1,11,5] + y[1,11,6] <= 1
 R204: orderamounts[0,0] - 15000 y[0,0,0] - 30000 y[0,0,1] - 40000 y[0,0,2]
   - 60000 y[0,0,3] - 100000 y[0,0,4] - 200000 y[0,0,5] - 300000 y[0,0,6]
   <= 0
 R205: orderamounts[0,1] - 15000 y[0,1,0] - 30000 y[0,1,1] - 40000 y[0,1,2]
   - 60000 y[0,1,3] - 100000 y[0,1,4] - 200000 y[0,1,5] - 300000 y[0,1,6]
   <= 0
 R206: orderamounts[0,2] - 15000 y[0,2,0] - 30000 y[0,2,1] - 40000 y[0,2,2]
   - 60000 y[0,2,3] - 100000 y[0,2,4] - 200000 y[0,2,5] - 300000 y[0,2,6]
   <= 0
 R207: orderamounts[0,3] - 15000 y[0,3,0] - 30000 y[0,3,1] - 40000 y[0,3,2]
   - 60000 y[0,3,3] - 100000 y[0,3,4] - 200000 y[0,3,5] - 300000 y[0,3,6]
   <= 0
 R208: orderamounts[0,4] - 15000 y[0,4,0] - 30000 y[0,4,1] - 40000 y[0,4,2]
   - 60000 y[0,4,3] - 100000 y[0,4,4] - 200000 y[0,4,5] - 300000 y[0,4,6]
   <= 0
 R209: orderamounts[0,5] - 15000 y[0,5,0] - 30000 y[0,5,1] - 40000 y[0,5,2]
   - 60000 y[0,5,3] - 100000 y[0,5,4] - 200000 y[0,5,5] - 300000 y[0,5,6]
   <= 0
 R210: orderamounts[0,6] - 15000 y[0,6,0] - 30000 y[0,6,1] - 40000 y[0,6,2]
   - 60000 y[0,6,3] - 100000 y[0,6,4] - 200000 y[0,6,5] - 300000 y[0,6,6]
   <= 0
 R211: orderamounts[0,7] - 15000 y[0,7,0] - 30000 y[0,7,1] - 40000 y[0,7,2]
   - 60000 y[0,7,3] - 100000 y[0,7,4] - 200000 y[0,7,5] - 300000 y[0,7,6]
   <= 0
 R212: orderamounts[0,8] - 15000 y[0,8,0] - 30000 y[0,8,1] - 40000 y[0,8,2]
   - 60000 y[0,8,3] - 100000 y[0,8,4] - 200000 y[0,8,5] - 300000 y[0,8,6]
   <= 0
 R213: orderamounts[0,9] - 15000 y[0,9,0] - 30000 y[0,9,1] - 40000 y[0,9,2]
   - 60000 y[0,9,3] - 100000 y[0,9,4] - 200000 y[0,9,5] - 300000 y[0,9,6]
   <= 0
 R214: orderamounts[0,10] - 15000 y[0,10,0] - 30000 y[0,10,1]
   - 40000 y[0,10,2] - 60000 y[0,10,3] - 100000 y[0,10,4]
   - 200000 y[0,10,5] - 300000 y[0,10,6] <= 0
 R215: orderamounts[0,11] - 15000 y[0,11,0] - 30000 y[0,11,1]
   - 40000 y[0,11,2] - 60000 y[0,11,3] - 100000 y[0,11,4]
   - 200000 y[0,11,5] - 300000 y[0,11,6] <= 0
 R216: orderamounts[1,0] - 15000 y[1,0,0] - 30000 y[1,0,1] - 40000 y[1,0,2]
   - 60000 y[1,0,3] - 100000 y[1,0,4] - 200000 y[1,0,5] - 300000 y[1,0,6]
   <= 0
 R217: orderamounts[1,1] - 15000 y[1,1,0] - 30000 y[1,1,1] - 40000 y[1,1,2]
   - 60000 y[1,1,3] - 100000 y[1,1,4] - 200000 y[1,1,5] - 300000 y[1,1,6]
   <= 0
 R218: orderamounts[1,2] - 15000 y[1,2,0] - 30000 y[1,2,1] - 40000 y[1,2,2]
   - 60000 y[1,2,3] - 100000 y[1,2,4] - 200000 y[1,2,5] - 300000 y[1,2,6]
   <= 0
 R219: orderamounts[1,3] - 15000 y[1,3,0] - 30000 y[1,3,1] - 40000 y[1,3,2]
   - 60000 y[1,3,3] - 100000 y[1,3,4] - 200000 y[1,3,5] - 300000 y[1,3,6]
   <= 0
 R220: orderamounts[1,4] - 15000 y[1,4,0] - 30000 y[1,4,1] - 40000 y[1,4,2]
   - 60000 y[1,4,3] - 100000 y[1,4,4] - 200000 y[1,4,5] - 300000 y[1,4,6]
   <= 0
 R221: orderamounts[1,5] - 15000 y[1,5,0] - 30000 y[1,5,1] - 40000 y[1,5,2]
   - 60000 y[1,5,3] - 100000 y[1,5,4] - 200000 y[1,5,5] - 300000 y[1,5,6]
   <= 0
 R222: orderamounts[1,6] - 15000 y[1,6,0] - 30000 y[1,6,1] - 40000 y[1,6,2]
   - 60000 y[1,6,3] - 100000 y[1,6,4] - 200000 y[1,6,5] - 300000 y[1,6,6]
   <= 0
 R223: orderamounts[1,7] - 15000 y[1,7,0] - 30000 y[1,7,1] - 40000 y[1,7,2]
   - 60000 y[1,7,3] - 100000 y[1,7,4] - 200000 y[1,7,5] - 300000 y[1,7,6]
   <= 0
 R224: orderamounts[1,8] - 15000 y[1,8,0] - 30000 y[1,8,1] - 40000 y[1,8,2]
   - 60000 y[1,8,3] - 100000 y[1,8,4] - 200000 y[1,8,5] - 300000 y[1,8,6]
   <= 0
 R225: orderamounts[1,9] - 15000 y[1,9,0] - 30000 y[1,9,1] - 40000 y[1,9,2]
   - 60000 y[1,9,3] - 100000 y[1,9,4] - 200000 y[1,9,5] - 300000 y[1,9,6]
   <= 0
 R226: orderamounts[1,10] - 15000 y[1,10,0] - 30000 y[1,10,1]
   - 40000 y[1,10,2] - 60000 y[1,10,3] - 100000 y[1,10,4]
   - 200000 y[1,10,5] - 300000 y[1,10,6] <= 0
 R227: orderamounts[1,11] - 15000 y[1,11,0] - 30000 y[1,11,1]
   - 40000 y[1,11,2] - 60000 y[1,11,3] - 100000 y[1,11,4]
   - 200000 y[1,11,5] - 300000 y[1,11,6] <= 0
Bounds
Binaries
 y[0,0,0] y[0,0,1] y[0,0,2] y[0,0,3] y[0,0,4] y[0,0,5] y[0,0,6] y[0,1,0]
 y[0,1,1] y[0,1,2] y[0,1,3] y[0,1,4] y[0,1,5] y[0,1,6] y[0,2,0] y[0,2,1]
 y[0,2,2] y[0,2,3] y[0,2,4] y[0,2,5] y[0,2,6] y[0,3,0] y[0,3,1] y[0,3,2]
 y[0,3,3] y[0,3,4] y[0,3,5] y[0,3,6] y[0,4,0] y[0,4,1] y[0,4,2] y[0,4,3]
 y[0,4,4] y[0,4,5] y[0,4,6] y[0,5,0] y[0,5,1] y[0,5,2] y[0,5,3] y[0,5,4]
 y[0,5,5] y[0,5,6] y[0,6,0] y[0,6,1] y[0,6,2] y[0,6,3] y[0,6,4] y[0,6,5]
 y[0,6,6] y[0,7,0] y[0,7,1] y[0,7,2] y[0,7,3] y[0,7,4] y[0,7,5] y[0,7,6]
 y[0,8,0] y[0,8,1] y[0,8,2] y[0,8,3] y[0,8,4] y[0,8,5] y[0,8,6] y[0,9,0]
 y[0,9,1] y[0,9,2] y[0,9,3] y[0,9,4] y[0,9,5] y[0,9,6] y[0,10,0] y[0,10,1]
 y[0,10,2] y[0,10,3] y[0,10,4] y[0,10,5] y[0,10,6] y[0,11,0] y[0,11,1]
 y[0,11,2] y[0,11,3] y[0,11,4] y[0,11,5] y[0,11,6] y[1,0,0] y[1,0,1]
 y[1,0,2] y[1,0,3] y[1,0,4] y[1,0,5] y[1,0,6] y[1,1,0] y[1,1,1] y[1,1,2]
 y[1,1,3] y[1,1,4] y[1,1,5] y[1,1,6] y[1,2,0] y[1,2,1] y[1,2,2] y[1,2,3]
 y[1,2,4] y[1,2,5] y[1,2,6] y[1,3,0] y[1,3,1] y[1,3,2] y[1,3,3] y[1,3,4]
 y[1,3,5] y[1,3,6] y[1,4,0] y[1,4,1] y[1,4,2] y[1,4,3] y[1,4,4] y[1,4,5]
 y[1,4,6] y[1,5,0] y[1,5,1] y[1,5,2] y[1,5,3] y[1,5,4] y[1,5,5] y[1,5,6]
 y[1,6,0] y[1,6,1] y[1,6,2] y[1,6,3] y[1,6,4] y[1,6,5] y[1,6,6] y[1,7,0]
 y[1,7,1] y[1,7,2] y[1,7,3] y[1,7,4] y[1,7,5] y[1,7,6] y[1,8,0] y[1,8,1]
 y[1,8,2] y[1,8,3] y[1,8,4] y[1,8,5] y[1,8,6] y[1,9,0] y[1,9,1] y[1,9,2]
 y[1,9,3] y[1,9,4] y[1,9,5] y[1,9,6] y[1,10,0] y[1,10,1] y[1,10,2]
 y[1,10,3] y[1,10,4] y[1,10,5] y[1,10,6] y[1,11,0] y[1,11,1] y[1,11,2]
 y[1,11,3] y[1,11,4] y[1,11,5] y[1,11,6] z[0,0] z[0,1] z[0,2] z[0,3] z[0,4]
 z[0,5] z[0,6] z[0,7] z[0,8] z[0,9] z[0,10] z[0,11] z[1,0] z[1,1] z[1,2]
 z[1,3] z[1,4] z[1,5] z[1,6] z[1,7] z[1,8] z[1,9] z[1,10] z[1,11]
End
